Route #1: 7 63 11 54 48 57 23 28
Route #2: 62 33 1 12 13 29 55
Route #3: 59 40 10 8 52 24 19 18
Route #4: 53 56 44 25 21
Route #5: 32 20 58 61 42 38 2 41
Route #6: 5 45 16 50 60 30 37
Route #7: 49 4 35 36 3 14 27 15
Route #8: 43 22 9 34 47 51
Route #9: 17 31 26 6 64 46 39
Cost 1177
Time 0.087514
